% Generated by MiniZinc 2.9.3
% Solver library: /home/icwmmarijnisse/Pumpkin/minizinc/lib
% Command line invocation: minizinc --compile --fzn ./instance.fzn --ozn ./instance.ozn --solver pumpkin ../../../../benchmarks/models/tsp/instances/tsp.mzn ../../../../benchmarks/models/tsp/instances/TSP_N20_3.dzn 

predicate pumpkin_circuit(array [int] of var int: x);
array [1..20] of int: X_INTRODUCED_38_ = [0,664,153,931,273,847,146,74,62,170,812,315,610,767,845,583,944,296,450,128];
array [1..20] of int: X_INTRODUCED_40_ = [664,0,480,706,312,717,413,966,279,513,553,506,449,83,613,41,911,443,753,331];
array [1..20] of int: X_INTRODUCED_42_ = [153,480,0,619,257,27,94,235,985,691,857,882,590,602,974,22,784,689,842,276];
array [1..20] of int: X_INTRODUCED_44_ = [931,706,619,0,591,42,782,775,180,482,532,668,453,939,285,186,600,447,651,834];
array [1..20] of int: X_INTRODUCED_46_ = [273,312,257,591,0,504,993,94,482,357,419,342,329,687,108,879,165,338,422,711];
array [1..20] of int: X_INTRODUCED_48_ = [847,717,27,42,504,0,508,296,679,968,411,834,779,564,38,466,91,323,259,332];
array [1..20] of int: X_INTRODUCED_50_ = [146,413,94,782,993,508,0,119,994,792,414,886,527,845,2,674,891,556,474,424];
array [1..20] of int: X_INTRODUCED_52_ = [74,966,235,775,94,296,119,0,56,193,531,371,638,775,511,641,453,779,53,209];
array [1..20] of int: X_INTRODUCED_54_ = [62,279,985,180,482,679,994,56,0,274,563,135,950,295,449,902,716,497,125,30];
array [1..20] of int: X_INTRODUCED_56_ = [170,513,691,482,357,968,792,193,274,0,997,646,624,819,246,727,163,319,565,15];
array [1..20] of int: X_INTRODUCED_58_ = [812,553,857,532,419,411,414,531,563,997,0,566,418,96,231,862,935,117,473,970];
array [1..20] of int: X_INTRODUCED_60_ = [315,506,882,668,342,834,886,371,135,646,566,0,121,664,853,158,511,956,734,299];
array [1..20] of int: X_INTRODUCED_62_ = [610,449,590,453,329,779,527,638,950,624,418,121,0,522,723,280,426,855,495,484];
array [1..20] of int: X_INTRODUCED_64_ = [767,83,602,939,687,564,845,775,295,819,96,664,522,0,250,468,565,149,393,196];
array [1..20] of int: X_INTRODUCED_66_ = [845,613,974,285,108,38,2,511,449,246,231,853,723,250,0,944,614,521,765,901];
array [1..20] of int: X_INTRODUCED_68_ = [583,41,22,186,879,466,674,641,902,727,862,158,280,468,944,0,140,885,72,283];
array [1..20] of int: X_INTRODUCED_70_ = [944,911,784,600,165,91,891,453,716,163,935,511,426,565,614,140,0,792,809,875];
array [1..20] of int: X_INTRODUCED_72_ = [296,443,689,447,338,323,556,779,497,319,117,956,855,149,521,885,792,0,425,349];
array [1..20] of int: X_INTRODUCED_74_ = [450,753,842,651,422,259,474,53,125,565,473,734,495,393,765,72,809,425,0,957];
array [1..20] of int: X_INTRODUCED_76_ = [128,331,276,834,711,332,424,209,30,15,970,299,484,196,901,283,875,349,957,0];
array [1..21] of int: X_INTRODUCED_81_ = [1,-1,-1,-1,-1,-1,-1,-1,-1,-1,-1,-1,-1,-1,-1,-1,-1,-1,-1,-1,-1];
var 1..20: X_INTRODUCED_16_;
var 1..20: X_INTRODUCED_17_;
var 1..20: X_INTRODUCED_18_;
var 1..20: X_INTRODUCED_19_;
var 1..20: X_INTRODUCED_20_;
var 1..20: X_INTRODUCED_21_;
var 1..20: X_INTRODUCED_22_;
var 1..20: X_INTRODUCED_23_;
var 1..20: X_INTRODUCED_24_;
var 1..20: X_INTRODUCED_25_;
var 1..20: X_INTRODUCED_26_;
var 1..20: X_INTRODUCED_27_;
var 1..20: X_INTRODUCED_28_;
var 1..20: X_INTRODUCED_29_;
var 1..20: X_INTRODUCED_30_;
var 1..20: X_INTRODUCED_31_;
var 1..20: X_INTRODUCED_32_;
var 1..20: X_INTRODUCED_33_;
var 1..20: X_INTRODUCED_34_;
var 1..20: X_INTRODUCED_35_;
var 0..19333: Objective:: output_var:: is_defined_var;
var 0..944: X_INTRODUCED_39_ ::var_is_introduced :: is_defined_var;
var 0..966: X_INTRODUCED_41_ ::var_is_introduced :: is_defined_var;
var 0..985: X_INTRODUCED_43_ ::var_is_introduced :: is_defined_var;
var 0..939: X_INTRODUCED_45_ ::var_is_introduced :: is_defined_var;
var 0..993: X_INTRODUCED_47_ ::var_is_introduced :: is_defined_var;
var 0..968: X_INTRODUCED_49_ ::var_is_introduced :: is_defined_var;
var 0..994: X_INTRODUCED_51_ ::var_is_introduced :: is_defined_var;
var 0..966: X_INTRODUCED_53_ ::var_is_introduced :: is_defined_var;
var 0..994: X_INTRODUCED_55_ ::var_is_introduced :: is_defined_var;
var 0..997: X_INTRODUCED_57_ ::var_is_introduced :: is_defined_var;
var 0..997: X_INTRODUCED_59_ ::var_is_introduced :: is_defined_var;
var 0..956: X_INTRODUCED_61_ ::var_is_introduced :: is_defined_var;
var 0..950: X_INTRODUCED_63_ ::var_is_introduced :: is_defined_var;
var 0..939: X_INTRODUCED_65_ ::var_is_introduced :: is_defined_var;
var 0..974: X_INTRODUCED_67_ ::var_is_introduced :: is_defined_var;
var 0..944: X_INTRODUCED_69_ ::var_is_introduced :: is_defined_var;
var 0..944: X_INTRODUCED_71_ ::var_is_introduced :: is_defined_var;
var 0..956: X_INTRODUCED_73_ ::var_is_introduced :: is_defined_var;
var 0..957: X_INTRODUCED_75_ ::var_is_introduced :: is_defined_var;
var 0..970: X_INTRODUCED_77_ ::var_is_introduced :: is_defined_var;
array [1..20] of var int: Successor:: output_array([1..20]) = [X_INTRODUCED_16_,X_INTRODUCED_17_,X_INTRODUCED_18_,X_INTRODUCED_19_,X_INTRODUCED_20_,X_INTRODUCED_21_,X_INTRODUCED_22_,X_INTRODUCED_23_,X_INTRODUCED_24_,X_INTRODUCED_25_,X_INTRODUCED_26_,X_INTRODUCED_27_,X_INTRODUCED_28_,X_INTRODUCED_29_,X_INTRODUCED_30_,X_INTRODUCED_31_,X_INTRODUCED_32_,X_INTRODUCED_33_,X_INTRODUCED_34_,X_INTRODUCED_35_];
array [1..21] of var int: X_INTRODUCED_80_ ::var_is_introduced  = [Objective,X_INTRODUCED_39_,X_INTRODUCED_41_,X_INTRODUCED_43_,X_INTRODUCED_45_,X_INTRODUCED_47_,X_INTRODUCED_49_,X_INTRODUCED_51_,X_INTRODUCED_53_,X_INTRODUCED_55_,X_INTRODUCED_57_,X_INTRODUCED_59_,X_INTRODUCED_61_,X_INTRODUCED_63_,X_INTRODUCED_65_,X_INTRODUCED_67_,X_INTRODUCED_69_,X_INTRODUCED_71_,X_INTRODUCED_73_,X_INTRODUCED_75_,X_INTRODUCED_77_];
constraint pumpkin_circuit(Successor);
constraint array_int_element(X_INTRODUCED_16_,X_INTRODUCED_38_,X_INTRODUCED_39_):: defines_var(X_INTRODUCED_39_);
constraint array_int_element(X_INTRODUCED_17_,X_INTRODUCED_40_,X_INTRODUCED_41_):: defines_var(X_INTRODUCED_41_);
constraint array_int_element(X_INTRODUCED_18_,X_INTRODUCED_42_,X_INTRODUCED_43_):: defines_var(X_INTRODUCED_43_);
constraint array_int_element(X_INTRODUCED_19_,X_INTRODUCED_44_,X_INTRODUCED_45_):: defines_var(X_INTRODUCED_45_);
constraint array_int_element(X_INTRODUCED_20_,X_INTRODUCED_46_,X_INTRODUCED_47_):: defines_var(X_INTRODUCED_47_);
constraint array_int_element(X_INTRODUCED_21_,X_INTRODUCED_48_,X_INTRODUCED_49_):: defines_var(X_INTRODUCED_49_);
constraint array_int_element(X_INTRODUCED_22_,X_INTRODUCED_50_,X_INTRODUCED_51_):: defines_var(X_INTRODUCED_51_);
constraint array_int_element(X_INTRODUCED_23_,X_INTRODUCED_52_,X_INTRODUCED_53_):: defines_var(X_INTRODUCED_53_);
constraint array_int_element(X_INTRODUCED_24_,X_INTRODUCED_54_,X_INTRODUCED_55_):: defines_var(X_INTRODUCED_55_);
constraint array_int_element(X_INTRODUCED_25_,X_INTRODUCED_56_,X_INTRODUCED_57_):: defines_var(X_INTRODUCED_57_);
constraint array_int_element(X_INTRODUCED_26_,X_INTRODUCED_58_,X_INTRODUCED_59_):: defines_var(X_INTRODUCED_59_);
constraint array_int_element(X_INTRODUCED_27_,X_INTRODUCED_60_,X_INTRODUCED_61_):: defines_var(X_INTRODUCED_61_);
constraint array_int_element(X_INTRODUCED_28_,X_INTRODUCED_62_,X_INTRODUCED_63_):: defines_var(X_INTRODUCED_63_);
constraint array_int_element(X_INTRODUCED_29_,X_INTRODUCED_64_,X_INTRODUCED_65_):: defines_var(X_INTRODUCED_65_);
constraint array_int_element(X_INTRODUCED_30_,X_INTRODUCED_66_,X_INTRODUCED_67_):: defines_var(X_INTRODUCED_67_);
constraint array_int_element(X_INTRODUCED_31_,X_INTRODUCED_68_,X_INTRODUCED_69_):: defines_var(X_INTRODUCED_69_);
constraint array_int_element(X_INTRODUCED_32_,X_INTRODUCED_70_,X_INTRODUCED_71_):: defines_var(X_INTRODUCED_71_);
constraint array_int_element(X_INTRODUCED_33_,X_INTRODUCED_72_,X_INTRODUCED_73_):: defines_var(X_INTRODUCED_73_);
constraint array_int_element(X_INTRODUCED_34_,X_INTRODUCED_74_,X_INTRODUCED_75_):: defines_var(X_INTRODUCED_75_);
constraint array_int_element(X_INTRODUCED_35_,X_INTRODUCED_76_,X_INTRODUCED_77_):: defines_var(X_INTRODUCED_77_);
constraint int_lin_eq(X_INTRODUCED_81_,X_INTRODUCED_80_,0):: defines_var(Objective);
solve  minimize Objective;
